NAME : sim81.92361.tour
COMMENT : Length = 92361
COMMENT : Found by LKH [Keld Helsgaun] Fri Sep 14 21:06:25 2018
TYPE : TOUR
DIMENSION : 81
TOUR_SECTION
1
37
47
6
75
64
25
2
57
23
69
63
70
55
41
77
53
4
65
24
60
8
10
46
19
15
40
3
79
52
81
50
59
80
72
74
16
66
13
43
14
33
28
32
49
18
42
26
62
76
12
67
39
73
30
58
27
31
56
29
21
20
45
44
5
7
71
34
9
61
22
35
78
17
48
36
11
68
54
51
38
-1
EOF
